--------------------------------------------------------------------------------(Solver execution current time: 0.00021648406982421875)
[INFO] Input Seed : 0
--------------------------------------------------------------------------------(Solver execution current time: 0.00026106834411621094)
[INFO] Input time limit : 30
--------------------------------------------------------------------------------(Solver execution current time: 0.000293731689453125)
[INFO] Command line arguments read with no errors.
--------------------------------------------------------------------------------(Solver execution current time: 0.10589385032653809)
[INFO] Input file read with no errors.
--------------------------------------------------------------------------------(Solver execution current time: 0.1060638427734375)
[INFO] Starting solver.
--------------------------------------------------------------------------------(Solver execution current time: 0.10613608360290527)
[INFO] Starting construction
--------------------------------------------------------------------------------(Solver execution current time: 6.339889764785767)
[INFO] Finished construction
--------------------------------------------------------------------------------(Solver execution current time: 6.340011358261108)
[SOLUTION]
Basic Greedy Heuristic
Exec Time: 6.233761787414551
obj_value: -90; obj_routes: 35871.0
Route 1 : 78 178 75 175 77 177 12 68 23 30 130 52 168 112 83 53 17 41 141 183 153 123 97 197 117 47 73 152 173 147 
Route 2 : 91 51 191 151 88 14 95 195 188 114 56 10 156 110 57 34 157 134 81 19 181 40 140 18 119 118 29 96 129 11 111 196 
Route 3 : 44 59 80 180 159 144 22 122 62 162 27 13 1 101 69 66 72 169 127 172 31 166 70 63 131 170 163 113 71 171 
Route 4 : 46 16 146 116 55 155 39 89 189 139 28 8 21 121 128 108 
Route 5 : 6 106 3 103 85 185 79 76 61 161 179 176 86 186 24 124 
Route 6 : 92 192 49 149 2 102 4 104 26 90 190 126 
Route 7 : 37 137 98 198 36 74 136 174 
Route 8 : 58 158 7 107 43 65 165 143 32 132 67 167 
Route 9 : 94 5 194 9 105 109 38 138 
Route 10 : 33 20 120 42 133 142 
Route 11 : 64 164 87 93 187 193 
Route 12 : 35 25 125 135 
Route 13 : 
Route 14 : 
Route 15 : 
Route 16 : 
Route 17 : 
Route 18 : 
Route 19 : 
Route 20 : 
Route 21 : 

--------------------------------------------------------------------------------(Solver execution current time: 6.341838121414185)
[SOLUTION]
Solution after BasicGreedyLimitedHeterogeneousFleet
obj_value: -90; obj_routes: 35871.0
Route 1 : 78 178 75 175 77 177 12 68 23 30 130 52 168 112 83 53 17 41 141 183 153 123 97 197 117 47 73 152 173 147 
Route 2 : 91 51 191 151 88 14 95 195 188 114 56 10 156 110 57 34 157 134 81 19 181 40 140 18 119 118 29 96 129 11 111 196 
Route 3 : 44 59 80 180 159 144 22 122 62 162 27 13 1 101 69 66 72 169 127 172 31 166 70 63 131 170 163 113 71 171 
Route 4 : 46 16 146 116 55 155 39 89 189 139 28 8 21 121 128 108 
Route 5 : 6 106 3 103 85 185 79 76 61 161 179 176 86 186 24 124 
Route 6 : 92 192 49 149 2 102 4 104 26 90 190 126 
Route 7 : 37 137 98 198 36 74 136 174 
Route 8 : 58 158 7 107 43 65 165 143 32 132 67 167 
Route 9 : 94 5 194 9 105 109 38 138 
Route 10 : 33 20 120 42 133 142 
Route 11 : 64 164 87 93 187 193 
Route 12 : 35 25 125 135 
Route 13 : 
Route 14 : 
Route 15 : 
Route 16 : 
Route 17 : 
Route 18 : 
Route 19 : 
Route 20 : 
Route 21 : 

--------------------------------------------------------------------------------(Solver execution current time: 6.342183351516724)
[INFO] Starting metaheuristic
--------------------------------------------------------------------------------(Solver execution current time: 6.345190763473511)
[INFO] AGES EXCLUDED
--------------------------------------------------------------------------------(Solver execution current time: 6.346855401992798)
[INFO] Starting LNS
--------------------------------------------------------------------------------(Solver execution current time: 6.778377294540405)
[SOLUTION]
LNS
IT: 40
Exec Time: 0.42928171157836914
obj_value: -90; obj_routes: 35871.0
Route 1 : 78 178 75 175 77 177 12 68 23 30 130 52 168 112 83 53 17 41 141 183 153 123 97 197 117 47 73 152 173 147 
Route 2 : 91 51 191 151 88 14 95 195 188 114 56 10 156 110 57 34 157 134 81 19 181 40 140 18 119 118 29 96 129 11 111 196 
Route 3 : 44 59 80 180 159 144 22 122 62 162 27 13 1 101 69 66 72 169 127 172 31 166 70 63 131 170 163 113 71 171 
Route 4 : 46 16 146 116 55 155 39 89 189 139 28 8 21 121 128 108 
Route 5 : 6 106 3 103 85 185 79 76 61 161 179 176 86 186 24 124 
Route 6 : 92 192 49 149 2 102 4 104 26 90 190 126 
Route 7 : 37 137 98 198 36 74 136 174 
Route 8 : 58 158 7 107 43 65 165 143 32 132 67 167 
Route 9 : 94 5 194 9 105 109 38 138 
Route 10 : 33 20 120 42 133 142 
Route 11 : 64 164 87 93 187 193 
Route 12 : 35 25 125 135 
Route 13 : 
Route 14 : 
Route 15 : 
Route 16 : 
Route 17 : 
Route 18 : 
Route 19 : 
Route 20 : 
Route 21 : 

--------------------------------------------------------------------------------(Solver execution current time: 6.780908823013306)
[INFO] Starting PartitionMaxRequestsHF
--------------------------------------------------------------------------------(Solver execution current time: 6.873194932937622)
[SOLUTION]
PartitionMaxRequestsHF
Exec Time: 0.09217715263366699
obj_value: -90; obj_routes: 35871.0
Route 1 : 78 178 75 175 77 177 12 68 23 30 130 52 168 112 83 53 17 41 141 183 153 123 97 197 117 47 73 152 173 147 
Route 2 : 91 51 191 151 88 14 95 195 188 114 56 10 156 110 57 34 157 134 81 19 181 40 140 18 119 118 29 96 129 11 111 196 
Route 3 : 44 59 80 180 159 144 22 122 62 162 27 13 1 101 69 66 72 169 127 172 31 166 70 63 131 170 163 113 71 171 
Route 4 : 46 16 146 116 55 155 39 89 189 139 28 8 21 121 128 108 
Route 5 : 6 106 3 103 85 185 79 76 61 161 179 176 86 186 24 124 
Route 6 : 92 192 49 149 2 102 4 104 26 90 190 126 
Route 7 : 37 137 98 198 36 74 136 174 
Route 8 : 58 158 7 107 43 65 165 143 32 132 67 167 
Route 9 : 94 5 194 9 105 109 38 138 
Route 10 : 33 20 120 42 133 142 
Route 11 : 64 164 87 93 187 193 
Route 12 : 35 25 125 135 
Route 13 : 
Route 14 : 
Route 15 : 
Route 16 : 
Route 17 : 
Route 18 : 
Route 19 : 
Route 20 : 
Route 21 : 

--------------------------------------------------------------------------------(Solver execution current time: 6.876072406768799)
[INFO] Starting OriginalPerturbation
--------------------------------------------------------------------------------(Solver execution current time: 30.016942262649536)
[WARNING] Time Limit Exceeded
--------------------------------------------------------------------------------(Solver execution current time: 30.017086505889893)
[WARNING] Searching current best solution.
--------------------------------------------------------------------------------(Solver execution current time: 30.023804187774658)
[INFO] Algorithm execution time : 30.02467918395996
--------------------------------------------------------------------------------(Solver execution current time: 30.02716898918152)
[SOLUTION]
Final Solution Verification
====================================
Constraints verification: 
Homogenous Capacity Constraint OK
Time Windwos Constraint OK
Pickup and Delivery Constraint OK
Fixed Requests Constraint OK
Limited Fleet Constraint OK
Heterogeneous Fleet Constraint OK
====================================
Obj Func verification: 
SOLUTION COST OK
------------------------------------
ROUTES TOTAL COST OK
------------------------------------
REQUESTS TOTAL COST OK
------------------------------------
OBJECTIVE VALUE: -90
ROUTES VALUE: 35871.0
------------------------------------

Best Solution: 
obj_value: -90; obj_routes: 35871.0
Route 1 : 78 178 75 175 77 177 12 68 23 30 130 52 168 112 83 53 17 41 141 183 153 123 97 197 117 47 73 152 173 147 
Route 2 : 91 51 191 151 88 14 95 195 188 114 56 10 156 110 57 34 157 134 81 19 181 40 140 18 119 118 29 96 129 11 111 196 
Route 3 : 44 59 80 180 159 144 22 122 62 162 27 13 1 101 69 66 72 169 127 172 31 166 70 63 131 170 163 113 71 171 
Route 4 : 46 16 146 116 55 155 39 89 189 139 28 8 21 121 128 108 
Route 5 : 6 106 3 103 85 185 79 76 61 161 179 176 86 186 24 124 
Route 6 : 92 192 49 149 2 102 4 104 26 90 190 126 
Route 7 : 37 137 98 198 36 74 136 174 
Route 8 : 58 158 7 107 43 65 165 143 32 132 67 167 
Route 9 : 94 5 194 9 105 109 38 138 
Route 10 : 33 20 120 42 133 142 
Route 11 : 64 164 87 93 187 193 
Route 12 : 35 25 125 135 
Route 13 : 
Route 14 : 
Route 15 : 
Route 16 : 
Route 17 : 
Route 18 : 
Route 19 : 
Route 20 : 
Route 21 : 

--------------------------------------------------------------------------------